c colouring generated by benchmark framework
p edge 87 406
v 1 4
v 2 5
v 3 8
v 4 0
v 5 8
v 6 5
v 7 1
v 8 1
v 9 10
v 10 7
v 11 0
v 12 2
v 13 0
v 14 1
v 15 8
v 16 4
v 17 5
v 18 1
v 19 8
v 20 5
v 21 4
v 22 2
v 23 2
v 24 3
v 25 2
v 26 7
v 27 3
v 28 2
v 29 3
v 30 2
v 31 0
v 32 7
v 33 0
v 34 3
v 35 0
v 36 0
v 37 0
v 38 9
v 39 9
v 40 2
v 41 10
v 42 0
v 43 1
v 44 10
v 45 1
v 46 10
v 47 0
v 48 5
v 49 9
v 50 2
v 51 1
v 52 1
v 53 3
v 54 2
v 55 1
v 56 4
v 57 7
v 58 10
v 59 10
v 60 4
v 61 3
v 62 0
v 63 1
v 64 5
v 65 3
v 66 2
v 67 1
v 68 3
v 69 0
v 70 0
v 71 4
v 72 7
v 73 3
v 74 9
v 75 9
v 76 3
v 77 3
v 78 0
v 79 3
v 80 0
v 81 7
v 82 0
v 83 6
v 84 7
v 85 7
v 86 9
v 87 4
